
Gurobi 6.0.4 (win64) logging started 06/16/15 20:45:22

Read LP format model from file E:\Eigene Dateien\Downloads\Michi shit\VRPTWMS-master\VRPTWMS\instances\mip\fuel\N10-C_DV100-C_SV25_F5_3_No_1.lp
Reading time = 0.00 seconds
(null): 621 rows, 298 columns, 2643 nonzeros
Optimize a model with 621 rows, 298 columns and 2643 nonzeros
Model has 1100 quadratic constraints
WARNING: Only barrier available for SOCP models
Coefficient statistics:
  Matrix range    [1e+00, 1e+06]
  Objective range [3e+04, 1e+07]
  Bounds range    [1e+00, 1e+06]
  RHS range       [1e+00, 1e+06]
Presolve removed 68 rows and 49 columns
Presolve time: 0.10s
Presolved: 2035 rows, 1019 columns, 10337 nonzeros
Variable types: 712 continuous, 307 integer (254 binary)
Optimize a model with 2035 rows, 1019 columns and 10337 nonzeros
Coefficient statistics:
  Matrix range    [1e+00, 1e+06]
  Objective range [3e+04, 1e+07]
  Bounds range    [1e+00, 1e+06]
  RHS range       [1e+00, 1e+06]

Concurrent LP optimizer: dual simplex and barrier
Showing barrier log only...

Presolve removed 196 rows and 123 columns
Presolved: 1839 rows, 896 columns, 9509 nonzeros

Root barrier log...

Ordering time: 0.02s

Barrier performed 0 iterations in 0.14 seconds
Barrier solve interrupted - model solved by another algorithm


Solved with dual simplex
Solved in 46 iterations and 0.14 seconds
Optimal objective  2.201343067e+07

Root relaxation: objective 2.201343e+07, 46 iterations, 0.02 seconds

    Nodes    |    Current Node    |     Objective Bounds      |     Work
 Expl Unexpl |  Obj  Depth IntInf | Incumbent    BestBd   Gap | It/Node Time

     0     0 2.2013e+07    0   20          - 2.2013e+07      -     -    0s
     0     0 2.2285e+07    0   35          - 2.2285e+07      -     -    0s
     0     0 2.2682e+07    0   19          - 2.2682e+07      -     -    0s
     0     0 2.2789e+07    0   35          - 2.2789e+07      -     -    0s
     0     0 2.2806e+07    0   18          - 2.2806e+07      -     -    0s
     0     0 2.2812e+07    0    8          - 2.2812e+07      -     -    0s
     0     0 2.2812e+07    0    8          - 2.2812e+07      -     -    0s
H    0     0                    1.057082e+08 2.2812e+07  78.4%     -    0s
     0     0 2.2812e+07    0    8 1.0571e+08 2.2812e+07  78.4%     -    0s
H    0     0                    6.472660e+07 2.2812e+07  64.8%     -    0s
     0     2 2.2812e+07    0    8 6.4727e+07 2.2812e+07  64.8%     -    0s
H  254   182                    5.404800e+07 2.3556e+07  56.4%  31.6    0s
*  660   315              12    4.386820e+07 2.5100e+07  42.8%  29.6    0s
H  773   327                    4.374820e+07 2.6917e+07  38.5%  29.0    0s
H 3919   676                    4.343370e+07 3.0057e+07  30.8%  30.8    2s
* 4744   793              48    4.334570e+07 3.2352e+07  25.4%  31.6    3s
H 4816   770                    4.312990e+07 3.2427e+07  24.8%  31.8    3s
* 4836   727              46    4.311490e+07 3.2427e+07  24.8%  31.8    3s
H 5093   790                    4.306380e+07 3.2495e+07  24.5%  31.4    3s
H 6406   567                    4.303890e+07 3.3155e+07  23.0%  37.2    4s
  6580   551 3.3925e+07   29   32 4.3039e+07 3.3186e+07  22.9%  38.2    5s

Cutting planes:
  Learned: 1
  Gomory: 1
  Cover: 1
  Implied bound: 2
  Clique: 1
  MIR: 3
  GUB cover: 2

Explored 8767 nodes (420530 simplex iterations) in 8.44 seconds
Thread count was 4 (of 4 available processors)

Optimal solution found (tolerance 1.00e-04)
Best objective 4.303890000000e+07, best bound 4.303890000000e+07, gap 0.0%
k_c1	959999.0
k_c10	1000000.0
k_c2	40000.0
k_c3	969999.0
k_c4	949999.0
k_c5	909998.0
k_c6	1000000.0
k_c7	90000.0
k_c8	40000.0
k_c9	859997.0
k_dN	-0.0
o_1	0.0
o_10	-0.0
o_2	-0.0
o_3	0.0
o_4	0.0
o_5	0.0
o_6	-0.0
o_7	-0.0
o_8	0.0
o_9	0.0
p_1	0.0
p_10	-0.0
p_2	-0.0
p_3	0.0
p_4	-0.0
p_5	-0.0
p_6	-0.0
p_7	-0.0
p_8	-0.0
p_9	1.0
phi_c1	22705.0
phi_c10	27849.0
phi_c2	35811.0
phi_c3	16564.0
phi_c4	14671.0
phi_c5	12964.0
phi_c6	24619.0
phi_c7	8931.0
phi_c8	5519.0
phi_c9	0.0
phi_dN	-0.0
pi_c1	214670.0
pi_c10	0.0
pi_c2	50000.0
pi_c3	214670.0
pi_c4	0.0
pi_c5	214670.0
pi_c6	214670.0
pi_c7	214670.0
pi_c8	214670.0
pi_c9	214670.0
pi_dN	-0.0
tauD_c1	102000.0
tauD_c10	250000.0
tauD_c2	650000.0
tauD_c3	300000.0
tauD_c4	450000.0
tauD_c5	228400.0
tauD_c6	100000.0
tauD_c7	500000.0
tauD_c8	542752.0
tauD_c9	350900.0
tauD_d0	-0.0
tauD_dN	1000000.0
tauS_c1	808974.0
tauS_c10	484200.0
tauS_c2	341374.0
tauS_c3	0.0
tauS_c4	512150.0
tauS_c5	471150.0
tauS_c6	499050.0
tauS_c7	544400.0
tauS_c8	565075.0
tauS_c9	86326.0
tauS_d0	-0.0
tauS_dN	683300.0
x_c10_c7	1.0
x_c1_c5	1.0
x_c2_dN	1.0
x_c3_c4	1.0
x_c4_dN	1.0
x_c5_c9	1.0
x_c6_c3	1.0
x_c7_c8	1.0
x_c8_dN	1.0
x_c9_c2	1.0
x_d0_c1	1.0
x_d0_c10	1.0
x_d0_c6	1.0
z_c9_dN	1.0
z_d0_c9	1.0
